c Generated map
c Size: 8 * 8, weights in range: 1 to 10, walls: True, with ratio 0.05
c dim 7 of 8
c
p sp 64 100
c graph contains 64 nodes and 100 arcs
c
a 1 9 9
a 9 1 9
a 1 2 3
a 2 1 3
a 2 10 4
a 10 2 4
a 2 3 4
a 3 2 4
a 3 11 6
a 11 3 6
a 3 4 10
a 4 3 10
a 4 12 2
a 12 4 2
a 4 5 9
a 5 4 9
a 5 13 1
a 13 5 1
a 5 6 9
a 6 5 9
a 6 14 9
a 14 6 9
a 6 7 10
a 7 6 10
a 7 15 9
a 15 7 9
a 7 8 9
a 8 7 9
a 8 16 8
a 16 8 8
a 9 17 1
a 17 9 1
a 9 10 7
a 10 9 7
a 10 18 5
a 18 10 5
a 10 11 9
a 11 10 9
a 11 12 6
a 12 11 6
a 12 20 2
a 20 12 2
a 12 13 9
a 13 12 9
a 13 21 9
a 21 13 9
a 13 14 7
a 14 13 7
a 14 22 6
a 22 14 6
a 14 15 2
a 15 14 2
a 15 23 10
a 23 15 10
a 15 16 9
a 16 15 9
a 16 24 2
a 24 16 2
a 17 25 6
a 25 17 6
a 17 18 1
a 18 17 1
a 18 26 9
a 26 18 9
a 20 28 1
a 28 20 1
a 20 21 8
a 21 20 8
a 21 29 10
a 29 21 10
a 21 22 9
a 22 21 9
a 22 30 7
a 30 22 7
a 22 23 1
a 23 22 1
a 23 24 3
a 24 23 3
a 24 32 4
a 32 24 4
a 25 33 10
a 33 25 10
a 25 26 5
a 26 25 5
a 26 27 7
a 27 26 7
a 27 35 9
a 35 27 9
a 27 28 1
a 28 27 1
a 28 36 6
a 36 28 6
a 28 29 1
a 29 28 1
a 29 37 7
a 37 29 7
a 29 30 1
a 30 29 1
a 30 38 8
a 38 30 8
a 32 40 6
a 40 32 6
a 33 41 7
a 41 33 7
a 35 43 2
a 43 35 2
a 35 36 7
a 36 35 7
a 36 44 4
a 44 36 4
a 36 37 10
a 37 36 10
a 37 45 1
a 45 37 1
a 37 38 7
a 38 37 7
a 38 46 6
a 46 38 6
a 38 39 8
a 39 38 8
a 39 47 6
a 47 39 6
a 39 40 4
a 40 39 4
a 40 48 4
a 48 40 4
a 41 49 4
a 49 41 4
a 41 42 4
a 42 41 4
a 42 50 3
a 50 42 3
a 42 43 6
a 43 42 6
a 43 51 1
a 51 43 1
a 43 44 9
a 44 43 9
a 44 52 5
a 52 44 5
a 44 45 5
a 45 44 5
a 45 53 4
a 53 45 4
a 45 46 2
a 46 45 2
a 46 54 6
a 54 46 6
a 46 47 7
a 47 46 7
a 47 55 10
a 55 47 10
a 47 48 3
a 48 47 3
a 48 56 5
a 56 48 5
a 49 57 2
a 57 49 2
a 49 50 8
a 50 49 8
a 50 58 2
a 58 50 2
a 50 51 2
a 51 50 2
a 51 59 4
a 59 51 4
a 51 52 4
a 52 51 4
a 52 60 3
a 60 52 3
a 52 53 2
a 53 52 2
a 53 61 4
a 61 53 4
a 53 54 6
a 54 53 6
a 54 62 9
a 62 54 9
a 54 55 7
a 55 54 7
a 55 63 8
a 63 55 8
a 55 56 10
a 56 55 10
a 56 64 7
a 64 56 7
a 57 58 6
a 58 57 6
a 58 59 2
a 59 58 2
a 59 60 4
a 60 59 4
a 60 61 3
a 61 60 3
a 61 62 5
a 62 61 5
a 62 63 9
a 63 62 9
a 63 64 5
a 64 63 5
